c FILE /home/rafael/Documents/HappySet/MIHS/inputs/happygen/output/graph_random_k2_p0.2_v100_20241127_083552.txt
c SOURCE This is a random graph formed for the happy graph colouring problem.
c DESCRIPTION It was generated using the problem generator of Rhyd Lewis
c
c GRAPH STATS
c Seed                             = 202763352
c Number of Nodes                  = 100
c Edge probability defined by user = 0.5
c Number of colours k              = 2
c Number of pre-assignments        = 20
c Actual density                   = 0.511515
c 
c The degrees of nodes 1 to 100, respectively, are as follows 
c [66, 62, 61, 60, 60, 59, 59, 58, 58, 58, 57, 57, 57, 57, 57, 57, 56, 56, 56, 56, 55, 55, 55, 55, 55, 55, 
c  54, 54, 54, 54, 53, 53, 53, 53, 53, 53, 52, 52, 52, 52, 52, 52, 52, 52, 52, 52, 52, 51, 51, 51, 51, 
c  51, 50, 50, 49, 49, 49, 49, 49, 49, 49, 49, 49, 49, 49, 49, 48, 48, 48, 48, 48, 48, 48, 47, 47, 47, 
c  47, 46, 46, 46, 46, 46, 46, 45, 45, 45, 45, 45, 44, 44, 43, 42, 42, 41, 41, 40, 40, 39, 39, 38] 
c  
p edge 100 2532 2
e 1 2
e 1 3
e 1 4
e 1 5
e 1 6
e 1 7
e 1 11
e 1 12
e 1 13
e 1 14
e 1 17
e 1 20
e 1 21
e 1 22
e 1 23
e 1 24
e 1 25
e 1 26
e 1 27
e 1 28
e 1 30
e 1 31
e 1 34
e 1 35
e 1 36
e 1 39
e 1 40
e 1 41
e 1 42
e 1 43
e 1 44
e 1 45
e 1 47
e 1 48
e 1 49
e 1 50
e 1 51
e 1 52
e 1 54
e 1 55
e 1 56
e 1 59
e 1 64
e 1 66
e 1 67
e 1 69
e 1 70
e 1 71
e 1 72
e 1 73
e 1 74
e 1 76
e 1 77
e 1 78
e 1 79
e 1 80
e 1 82
e 1 86
e 1 87
e 1 89
e 1 91
e 1 92
e 1 93
e 1 97
e 1 99
e 1 100
e 2 3
e 2 4
e 2 5
e 2 6
e 2 8
e 2 9
e 2 13
e 2 14
e 2 16
e 2 18
e 2 19
e 2 20
e 2 23
e 2 24
e 2 26
e 2 27
e 2 29
e 2 31
e 2 34
e 2 35
e 2 36
e 2 39
e 2 40
e 2 43
e 2 44
e 2 45
e 2 46
e 2 47
e 2 48
e 2 49
e 2 51
e 2 52
e 2 53
e 2 54
e 2 56
e 2 57
e 2 59
e 2 60
e 2 61
e 2 62
e 2 64
e 2 67
e 2 68
e 2 69
e 2 71
e 2 73
e 2 74
e 2 75
e 2 76
e 2 77
e 2 78
e 2 79
e 2 80
e 2 81
e 2 83
e 2 84
e 2 85
e 2 86
e 2 88
e 2 92
e 2 94
e 3 4
e 3 5
e 3 7
e 3 8
e 3 10
e 3 11
e 3 12
e 3 13
e 3 14
e 3 16
e 3 18
e 3 20
e 3 22
e 3 23
e 3 25
e 3 27
e 3 28
e 3 29
e 3 30
e 3 31
e 3 33
e 3 35
e 3 36
e 3 37
e 3 40
e 3 41
e 3 43
e 3 44
e 3 45
e 3 46
e 3 47
e 3 49
e 3 50
e 3 53
e 3 56
e 3 57
e 3 58
e 3 59
e 3 60
e 3 63
e 3 64
e 3 65
e 3 66
e 3 69
e 3 70
e 3 71
e 3 74
e 3 76
e 3 77
e 3 79
e 3 82
e 3 84
e 3 85
e 3 87
e 3 91
e 3 92
e 3 93
e 3 97
e 3 99
e 4 5
e 4 6
e 4 7
e 4 8
e 4 10
e 4 11
e 4 12
e 4 13
e 4 15
e 4 17
e 4 19
e 4 20
e 4 21
e 4 22
e 4 25
e 4 26
e 4 27
e 4 29
e 4 32
e 4 33
e 4 34
e 4 35
e 4 36
e 4 41
e 4 42
e 4 45
e 4 46
e 4 47
e 4 48
e 4 50
e 4 52
e 4 54
e 4 55
e 4 57
e 4 61
e 4 63
e 4 66
e 4 67
e 4 71
e 4 72
e 4 73
e 4 77
e 4 80
e 4 81
e 4 82
e 4 83
e 4 85
e 4 88
e 4 89
e 4 90
e 4 92
e 4 93
e 4 95
e 4 96
e 4 98
e 4 99
e 4 100
e 5 7
e 5 8
e 5 9
e 5 10
e 5 11
e 5 12
e 5 13
e 5 14
e 5 16
e 5 17
e 5 19
e 5 21
e 5 22
e 5 23
e 5 24
e 5 25
e 5 27
e 5 31
e 5 33
e 5 34
e 5 35
e 5 38
e 5 39
e 5 40
e 5 41
e 5 43
e 5 45
e 5 46
e 5 47
e 5 53
e 5 55
e 5 56
e 5 57
e 5 58
e 5 60
e 5 61
e 5 62
e 5 63
e 5 65
e 5 69
e 5 70
e 5 71
e 5 72
e 5 76
e 5 77
e 5 78
e 5 79
e 5 83
e 5 84
e 5 87
e 5 91
e 5 93
e 5 94
e 5 97
e 5 98
e 5 100
e 6 7
e 6 9
e 6 10
e 6 11
e 6 12
e 6 13
e 6 14
e 6 15
e 6 16
e 6 17
e 6 18
e 6 19
e 6 20
e 6 23
e 6 24
e 6 25
e 6 26
e 6 27
e 6 28
e 6 30
e 6 32
e 6 34
e 6 38
e 6 41
e 6 42
e 6 43
e 6 44
e 6 45
e 6 47
e 6 50
e 6 52
e 6 53
e 6 54
e 6 55
e 6 57
e 6 58
e 6 59
e 6 60
e 6 61
e 6 68
e 6 70
e 6 72
e 6 76
e 6 77
e 6 78
e 6 79
e 6 80
e 6 81
e 6 82
e 6 83
e 6 86
e 6 90
e 6 96
e 6 98
e 6 99
e 6 100
e 7 9
e 7 10
e 7 11
e 7 12
e 7 13
e 7 14
e 7 15
e 7 16
e 7 17
e 7 18
e 7 19
e 7 20
e 7 23
e 7 24
e 7 26
e 7 27
e 7 28
e 7 29
e 7 32
e 7 34
e 7 36
e 7 38
e 7 40
e 7 41
e 7 43
e 7 44
e 7 47
e 7 48
e 7 50
e 7 51
e 7 52
e 7 54
e 7 55
e 7 56
e 7 57
e 7 58
e 7 60
e 7 61
e 7 62
e 7 64
e 7 65
e 7 66
e 7 67
e 7 73
e 7 75
e 7 76
e 7 77
e 7 80
e 7 85
e 7 86
e 7 87
e 7 89
e 7 97
e 7 99
e 8 9
e 8 10
e 8 12
e 8 13
e 8 14
e 8 15
e 8 16
e 8 17
e 8 20
e 8 21
e 8 24
e 8 26
e 8 27
e 8 29
e 8 30
e 8 34
e 8 35
e 8 37
e 8 39
e 8 41
e 8 43
e 8 44
e 8 47
e 8 48
e 8 50
e 8 51
e 8 52
e 8 53
e 8 55
e 8 58
e 8 60
e 8 61
e 8 62
e 8 64
e 8 65
e 8 67
e 8 69
e 8 70
e 8 71
e 8 75
e 8 77
e 8 80
e 8 81
e 8 82
e 8 84
e 8 85
e 8 87
e 8 88
e 8 89
e 8 90
e 8 93
e 8 94
e 8 97
e 8 98
e 9 11
e 9 12
e 9 13
e 9 15
e 9 17
e 9 18
e 9 20
e 9 21
e 9 22
e 9 23
e 9 24
e 9 25
e 9 26
e 9 27
e 9 28
e 9 29
e 9 32
e 9 34
e 9 35
e 9 36
e 9 37
e 9 40
e 9 42
e 9 43
e 9 44
e 9 46
e 9 47
e 9 49
e 9 50
e 9 51
e 9 53
e 9 54
e 9 58
e 9 59
e 9 60
e 9 62
e 9 63
e 9 64
e 9 65
e 9 67
e 9 70
e 9 74
e 9 75
e 9 77
e 9 79
e 9 80
e 9 81
e 9 86
e 9 87
e 9 91
e 9 92
e 9 95
e 9 99
e 10 11
e 10 13
e 10 14
e 10 15
e 10 16
e 10 18
e 10 20
e 10 21
e 10 22
e 10 25
e 10 26
e 10 31
e 10 32
e 10 33
e 10 34
e 10 35
e 10 37
e 10 38
e 10 40
e 10 43
e 10 44
e 10 45
e 10 46
e 10 47
e 10 51
e 10 52
e 10 53
e 10 55
e 10 58
e 10 59
e 10 61
e 10 62
e 10 63
e 10 64
e 10 65
e 10 69
e 10 70
e 10 71
e 10 73
e 10 76
e 10 80
e 10 81
e 10 83
e 10 86
e 10 87
e 10 88
e 10 90
e 10 92
e 10 93
e 10 96
e 10 98
e 10 100
e 11 14
e 11 15
e 11 16
e 11 19
e 11 20
e 11 21
e 11 26
e 11 28
e 11 30
e 11 31
e 11 32
e 11 33
e 11 36
e 11 37
e 11 38
e 11 39
e 11 40
e 11 41
e 11 42
e 11 45
e 11 46
e 11 47
e 11 48
e 11 49
e 11 54
e 11 55
e 11 57
e 11 58
e 11 60
e 11 63
e 11 65
e 11 66
e 11 67
e 11 69
e 11 71
e 11 72
e 11 73
e 11 75
e 11 77
e 11 80
e 11 81
e 11 83
e 11 84
e 11 88
e 11 89
e 11 90
e 11 92
e 11 95
e 11 100
e 12 16
e 12 18
e 12 19
e 12 20
e 12 21
e 12 24
e 12 27
e 12 29
e 12 31
e 12 32
e 12 33
e 12 34
e 12 37
e 12 39
e 12 40
e 12 41
e 12 45
e 12 46
e 12 47
e 12 50
e 12 51
e 12 55
e 12 56
e 12 57
e 12 58
e 12 60
e 12 61
e 12 63
e 12 67
e 12 68
e 12 69
e 12 70
e 12 73
e 12 74
e 12 76
e 12 81
e 12 82
e 12 83
e 12 84
e 12 86
e 12 87
e 12 88
e 12 91
e 12 92
e 12 93
e 12 96
e 12 97
e 12 99
e 12 100
e 13 14
e 13 15
e 13 16
e 13 17
e 13 18
e 13 19
e 13 20
e 13 23
e 13 25
e 13 26
e 13 27
e 13 28
e 13 30
e 13 31
e 13 33
e 13 34
e 13 36
e 13 37
e 13 38
e 13 40
e 13 41
e 13 42
e 13 43
e 13 44
e 13 46
e 13 47
e 13 51
e 13 53
e 13 54
e 13 55
e 13 56
e 13 57
e 13 58
e 13 61
e 13 62
e 13 63
e 13 66
e 13 68
e 13 72
e 13 76
e 13 78
e 13 80
e 13 81
e 13 83
e 13 89
e 13 91
e 13 98
e 14 15
e 14 16
e 14 18
e 14 19
e 14 21
e 14 22
e 14 23
e 14 24
e 14 25
e 14 30
e 14 31
e 14 33
e 14 35
e 14 36
e 14 38
e 14 40
e 14 42
e 14 44
e 14 47
e 14 48
e 14 49
e 14 50
e 14 51
e 14 52
e 14 57
e 14 61
e 14 62
e 14 65
e 14 66
e 14 68
e 14 72
e 14 73
e 14 75
e 14 76
e 14 78
e 14 79
e 14 80
e 14 82
e 14 83
e 14 84
e 14 86
e 14 89
e 14 91
e 14 92
e 14 94
e 14 97
e 14 99
e 15 16
e 15 17
e 15 18
e 15 20
e 15 22
e 15 23
e 15 24
e 15 25
e 15 27
e 15 28
e 15 32
e 15 33
e 15 34
e 15 36
e 15 38
e 15 42
e 15 45
e 15 47
e 15 48
e 15 49
e 15 50
e 15 53
e 15 54
e 15 55
e 15 57
e 15 59
e 15 63
e 15 65
e 15 66
e 15 67
e 15 68
e 15 69
e 15 71
e 15 73
e 15 78
e 15 81
e 15 82
e 15 83
e 15 85
e 15 87
e 15 88
e 15 89
e 15 91
e 15 93
e 15 95
e 15 96
e 15 97
e 15 99
e 16 17
e 16 18
e 16 20
e 16 21
e 16 23
e 16 25
e 16 26
e 16 29
e 16 30
e 16 32
e 16 34
e 16 35
e 16 36
e 16 37
e 16 39
e 16 41
e 16 42
e 16 43
e 16 45
e 16 47
e 16 50
e 16 51
e 16 53
e 16 54
e 16 56
e 16 58
e 16 59
e 16 62
e 16 63
e 16 64
e 16 65
e 16 67
e 16 68
e 16 70
e 16 71
e 16 72
e 16 73
e 16 80
e 16 82
e 16 84
e 16 85
e 16 90
e 16 92
e 16 94
e 16 96
e 17 18
e 17 19
e 17 21
e 17 22
e 17 23
e 17 24
e 17 25
e 17 26
e 17 27
e 17 28
e 17 29
e 17 31
e 17 33
e 17 34
e 17 36
e 17 41
e 17 42
e 17 43
e 17 48
e 17 49
e 17 50
e 17 52
e 17 57
e 17 60
e 17 61
e 17 62
e 17 64
e 17 66
e 17 68
e 17 69
e 17 70
e 17 72
e 17 74
e 17 76
e 17 77
e 17 79
e 17 84
e 17 86
e 17 87
e 17 88
e 17 89
e 17 91
e 17 93
e 17 96
e 17 97
e 17 99
e 18 20
e 18 21
e 18 22
e 18 23
e 18 24
e 18 25
e 18 26
e 18 29
e 18 32
e 18 33
e 18 35
e 18 36
e 18 37
e 18 38
e 18 41
e 18 43
e 18 45
e 18 46
e 18 49
e 18 53
e 18 54
e 18 55
e 18 56
e 18 58
e 18 62
e 18 63
e 18 67
e 18 70
e 18 73
e 18 74
e 18 76
e 18 78
e 18 81
e 18 83
e 18 84
e 18 85
e 18 86
e 18 87
e 18 90
e 18 92
e 18 93
e 18 94
e 18 95
e 18 96
e 19 20
e 19 22
e 19 24
e 19 25
e 19 28
e 19 31
e 19 32
e 19 33
e 19 34
e 19 35
e 19 39
e 19 40
e 19 41
e 19 43
e 19 44
e 19 46
e 19 48
e 19 49
e 19 50
e 19 51
e 19 52
e 19 54
e 19 55
e 19 57
e 19 58
e 19 59
e 19 60
e 19 64
e 19 66
e 19 67
e 19 70
e 19 71
e 19 74
e 19 75
e 19 78
e 19 80
e 19 81
e 19 84
e 19 86
e 19 87
e 19 90
e 19 91
e 19 94
e 19 95
e 19 96
e 19 99
e 20 22
e 20 23
e 20 24
e 20 27
e 20 28
e 20 31
e 20 32
e 20 35
e 20 36
e 20 39
e 20 40
e 20 41
e 20 43
e 20 44
e 20 45
e 20 46
e 20 48
e 20 49
e 20 50
e 20 55
e 20 56
e 20 58
e 20 60
e 20 62
e 20 63
e 20 64
e 20 70
e 20 72
e 20 74
e 20 76
e 20 79
e 20 81
e 20 87
e 20 90
e 20 92
e 20 93
e 20 94
e 20 95
e 20 96
e 20 99
e 21 22
e 21 24
e 21 25
e 21 26
e 21 29
e 21 30
e 21 31
e 21 32
e 21 34
e 21 35
e 21 36
e 21 39
e 21 41
e 21 44
e 21 46
e 21 48
e 21 49
e 21 50
e 21 51
e 21 53
e 21 54
e 21 56
e 21 57
e 21 59
e 21 61
e 21 63
e 21 67
e 21 69
e 21 70
e 21 72
e 21 76
e 21 79
e 21 81
e 21 83
e 21 84
e 21 85
e 21 88
e 21 89
e 21 91
e 21 93
e 21 95
e 21 96
e 21 100
e 22 24
e 22 25
e 22 26
e 22 30
e 22 31
e 22 33
e 22 35
e 22 38
e 22 40
e 22 43
e 22 44
e 22 45
e 22 48
e 22 49
e 22 50
e 22 52
e 22 54
e 22 55
e 22 56
e 22 57
e 22 58
e 22 59
e 22 60
e 22 64
e 22 65
e 22 66
e 22 68
e 22 71
e 22 72
e 22 74
e 22 75
e 22 77
e 22 80
e 22 85
e 22 86
e 22 88
e 22 90
e 22 91
e 22 93
e 22 96
e 22 99
e 22 100
e 23 25
e 23 26
e 23 29
e 23 30
e 23 31
e 23 32
e 23 33
e 23 35
e 23 39
e 23 40
e 23 41
e 23 42
e 23 47
e 23 48
e 23 50
e 23 52
e 23 54
e 23 55
e 23 56
e 23 59
e 23 60
e 23 63
e 23 65
e 23 67
e 23 68
e 23 69
e 23 73
e 23 74
e 23 76
e 23 77
e 23 78
e 23 80
e 23 82
e 23 84
e 23 87
e 23 91
e 23 92
e 23 93
e 23 94
e 23 95
e 23 99
e 24 26
e 24 27
e 24 28
e 24 29
e 24 31
e 24 32
e 24 33
e 24 34
e 24 36
e 24 38
e 24 40
e 24 42
e 24 45
e 24 47
e 24 48
e 24 49
e 24 54
e 24 57
e 24 59
e 24 63
e 24 65
e 24 66
e 24 69
e 24 70
e 24 73
e 24 74
e 24 75
e 24 76
e 24 78
e 24 80
e 24 81
e 24 83
e 24 84
e 24 86
e 24 87
e 24 90
e 24 91
e 24 95
e 24 97
e 25 26
e 25 29
e 25 30
e 25 32
e 25 33
e 25 34
e 25 35
e 25 36
e 25 37
e 25 38
e 25 39
e 25 44
e 25 46
e 25 47
e 25 50
e 25 55
e 25 56
e 25 57
e 25 59
e 25 63
e 25 65
e 25 67
e 25 68
e 25 71
e 25 73
e 25 75
e 25 76
e 25 77
e 25 78
e 25 79
e 25 81
e 25 82
e 25 83
e 25 86
e 25 90
e 25 92
e 25 95
e 25 98
e 26 27
e 26 28
e 26 29
e 26 34
e 26 38
e 26 40
e 26 41
e 26 43
e 26 44
e 26 45
e 26 46
e 26 48
e 26 49
e 26 51
e 26 53
e 26 54
e 26 55
e 26 58
e 26 60
e 26 61
e 26 63
e 26 67
e 26 68
e 26 69
e 26 71
e 26 74
e 26 75
e 26 78
e 26 82
e 26 83
e 26 84
e 26 85
e 26 87
e 26 88
e 26 90
e 26 95
e 26 96
e 27 28
e 27 29
e 27 30
e 27 32
e 27 33
e 27 37
e 27 40
e 27 41
e 27 42
e 27 43
e 27 45
e 27 48
e 27 54
e 27 56
e 27 57
e 27 58
e 27 59
e 27 60
e 27 61
e 27 64
e 27 65
e 27 70
e 27 71
e 27 73
e 27 75
e 27 78
e 27 80
e 27 82
e 27 83
e 27 84
e 27 85
e 27 89
e 27 90
e 27 92
e 27 95
e 27 96
e 27 98
e 27 100
e 28 29
e 28 32
e 28 35
e 28 36
e 28 39
e 28 40
e 28 41
e 28 43
e 28 44
e 28 46
e 28 47
e 28 49
e 28 52
e 28 59
e 28 60
e 28 62
e 28 63
e 28 64
e 28 67
e 28 68
e 28 69
e 28 71
e 28 72
e 28 74
e 28 75
e 28 76
e 28 77
e 28 78
e 28 80
e 28 81
e 28 82
e 28 86
e 28 87
e 28 88
e 28 89
e 28 92
e 28 94
e 28 96
e 28 97
e 28 100
e 29 30
e 29 31
e 29 36
e 29 40
e 29 42
e 29 43
e 29 44
e 29 45
e 29 47
e 29 48
e 29 49
e 29 50
e 29 51
e 29 54
e 29 59
e 29 60
e 29 61
e 29 62
e 29 64
e 29 68
e 29 70
e 29 71
e 29 74
e 29 77
e 29 78
e 29 82
e 29 83
e 29 86
e 29 87
e 29 88
e 29 89
e 29 90
e 29 91
e 29 93
e 29 94
e 29 95
e 29 100
e 30 31
e 30 32
e 30 33
e 30 34
e 30 35
e 30 37
e 30 38
e 30 39
e 30 41
e 30 42
e 30 46
e 30 48
e 30 49
e 30 50
e 30 52
e 30 54
e 30 55
e 30 57
e 30 58
e 30 59
e 30 61
e 30 62
e 30 64
e 30 66
e 30 67
e 30 68
e 30 69
e 30 70
e 30 71
e 30 72
e 30 74
e 30 79
e 30 81
e 30 85
e 30 88
e 30 89
e 30 91
e 30 92
e 30 93
e 30 100
e 31 34
e 31 35
e 31 37
e 31 38
e 31 40
e 31 41
e 31 42
e 31 44
e 31 45
e 31 46
e 31 52
e 31 54
e 31 59
e 31 60
e 31 62
e 31 63
e 31 64
e 31 67
e 31 70
e 31 72
e 31 74
e 31 75
e 31 80
e 31 82
e 31 83
e 31 85
e 31 86
e 31 87
e 31 88
e 31 90
e 31 91
e 31 93
e 31 94
e 31 98
e 31 99
e 32 33
e 32 35
e 32 37
e 32 38
e 32 39
e 32 43
e 32 44
e 32 46
e 32 49
e 32 51
e 32 52
e 32 53
e 32 56
e 32 61
e 32 62
e 32 63
e 32 66
e 32 67
e 32 68
e 32 69
e 32 70
e 32 74
e 32 78
e 32 79
e 32 80
e 32 84
e 32 85
e 32 87
e 32 89
e 32 93
e 32 95
e 32 97
e 32 98
e 32 99
e 33 34
e 33 36
e 33 40
e 33 41
e 33 43
e 33 45
e 33 48
e 33 51
e 33 54
e 33 55
e 33 57
e 33 59
e 33 61
e 33 62
e 33 63
e 33 64
e 33 66
e 33 68
e 33 69
e 33 70
e 33 72
e 33 73
e 33 74
e 33 75
e 33 77
e 33 79
e 33 81
e 33 90
e 33 91
e 33 94
e 33 95
e 33 97
e 33 98
e 33 100
e 34 37
e 34 39
e 34 43
e 34 44
e 34 45
e 34 47
e 34 50
e 34 52
e 34 53
e 34 55
e 34 57
e 34 59
e 34 61
e 34 62
e 34 63
e 34 67
e 34 68
e 34 69
e 34 71
e 34 77
e 34 79
e 34 81
e 34 83
e 34 84
e 34 85
e 34 90
e 34 91
e 34 92
e 34 93
e 34 95
e 34 99
e 35 36
e 35 37
e 35 38
e 35 39
e 35 41
e 35 42
e 35 44
e 35 46
e 35 49
e 35 52
e 35 53
e 35 54
e 35 58
e 35 60
e 35 61
e 35 63
e 35 64
e 35 65
e 35 66
e 35 67
e 35 69
e 35 70
e 35 76
e 35 77
e 35 82
e 35 85
e 35 86
e 35 89
e 35 90
e 35 91
e 35 94
e 35 98
e 36 37
e 36 38
e 36 41
e 36 43
e 36 49
e 36 50
e 36 51
e 36 53
e 36 54
e 36 56
e 36 57
e 36 58
e 36 60
e 36 62
e 36 64
e 36 66
e 36 68
e 36 71
e 36 73
e 36 76
e 36 77
e 36 79
e 36 81
e 36 82
e 36 83
e 36 84
e 36 88
e 36 89
e 36 91
e 36 95
e 36 96
e 36 97
e 37 38
e 37 40
e 37 44
e 37 45
e 37 46
e 37 47
e 37 49
e 37 52
e 37 55
e 37 56
e 37 58
e 37 59
e 37 61
e 37 62
e 37 65
e 37 66
e 37 67
e 37 68
e 37 69
e 37 70
e 37 72
e 37 73
e 37 74
e 37 75
e 37 79
e 37 81
e 37 83
e 37 84
e 37 85
e 37 86
e 37 91
e 37 94
e 37 95
e 37 96
e 37 99
e 38 40
e 38 41
e 38 42
e 38 43
e 38 45
e 38 46
e 38 48
e 38 49
e 38 50
e 38 54
e 38 55
e 38 57
e 38 59
e 38 62
e 38 65
e 38 67
e 38 68
e 38 70
e 38 76
e 38 80
e 38 82
e 38 84
e 38 86
e 38 87
e 38 89
e 38 90
e 38 92
e 38 93
e 38 94
e 38 95
e 38 97
e 38 98
e 38 100
e 39 40
e 39 41
e 39 42
e 39 43
e 39 44
e 39 47
e 39 48
e 39 49
e 39 51
e 39 53
e 39 54
e 39 56
e 39 57
e 39 59
e 39 61
e 39 68
e 39 70
e 39 71
e 39 72
e 39 73
e 39 76
e 39 77
e 39 78
e 39 79
e 39 80
e 39 81
e 39 84
e 39 85
e 39 88
e 39 90
e 39 94
e 39 95
e 39 96
e 39 97
e 39 98
e 40 43
e 40 45
e 40 47
e 40 48
e 40 49
e 40 50
e 40 53
e 40 59
e 40 60
e 40 62
e 40 63
e 40 64
e 40 65
e 40 67
e 40 69
e 40 72
e 40 73
e 40 77
e 40 80
e 40 84
e 40 86
e 40 89
e 40 90
e 40 91
e 40 95
e 40 96
e 40 100
e 41 42
e 41 43
e 41 44
e 41 50
e 41 51
e 41 52
e 41 55
e 41 57
e 41 61
e 41 64
e 41 65
e 41 66
e 41 67
e 41 69
e 41 70
e 41 71
e 41 72
e 41 73
e 41 76
e 41 77
e 41 78
e 41 83
e 41 87
e 41 93
e 41 98
e 42 43
e 42 44
e 42 46
e 42 51
e 42 53
e 42 54
e 42 55
e 42 56
e 42 57
e 42 59
e 42 61
e 42 62
e 42 63
e 42 64
e 42 65
e 42 68
e 42 69
e 42 70
e 42 71
e 42 73
e 42 74
e 42 76
e 42 77
e 42 78
e 42 79
e 42 80
e 42 86
e 42 87
e 42 88
e 42 94
e 42 97
e 42 99
e 43 44
e 43 45
e 43 50
e 43 52
e 43 54
e 43 56
e 43 57
e 43 58
e 43 60
e 43 61
e 43 64
e 43 66
e 43 67
e 43 75
e 43 76
e 43 79
e 43 82
e 43 83
e 43 88
e 43 97
e 43 98
e 43 99
e 43 100
e 44 46
e 44 47
e 44 48
e 44 52
e 44 53
e 44 54
e 44 55
e 44 56
e 44 58
e 44 62
e 44 63
e 44 70
e 44 71
e 44 73
e 44 74
e 44 78
e 44 79
e 44 81
e 44 83
e 44 85
e 44 86
e 44 89
e 44 91
e 44 99
e 44 100
e 45 46
e 45 47
e 45 48
e 45 52
e 45 53
e 45 56
e 45 58
e 45 60
e 45 64
e 45 65
e 45 66
e 45 68
e 45 69
e 45 72
e 45 76
e 45 77
e 45 80
e 45 83
e 45 85
e 45 86
e 45 87
e 45 88
e 45 89
e 45 91
e 45 95
e 45 98
e 45 100
e 46 52
e 46 54
e 46 56
e 46 59
e 46 60
e 46 62
e 46 63
e 46 64
e 46 65
e 46 67
e 46 68
e 46 69
e 46 70
e 46 72
e 46 73
e 46 75
e 46 76
e 46 77
e 46 80
e 46 83
e 46 85
e 46 88
e 46 89
e 46 93
e 46 95
e 46 97
e 46 98
e 47 51
e 47 52
e 47 53
e 47 54
e 47 55
e 47 56
e 47 58
e 47 64
e 47 65
e 47 66
e 47 68
e 47 69
e 47 70
e 47 72
e 47 75
e 47 76
e 47 78
e 47 79
e 47 84
e 47 85
e 47 87
e 47 91
e 47 93
e 47 94
e 47 100
e 48 49
e 48 53
e 48 55
e 48 56
e 48 57
e 48 61
e 48 65
e 48 69
e 48 73
e 48 75
e 48 77
e 48 78
e 48 79
e 48 80
e 48 82
e 48 83
e 48 84
e 48 85
e 48 88
e 48 90
e 48 91
e 48 92
e 48 94
e 48 96
e 48 97
e 48 99
e 49 51
e 49 53
e 49 56
e 49 58
e 49 59
e 49 62
e 49 63
e 49 65
e 49 67
e 49 68
e 49 69
e 49 70
e 49 72
e 49 73
e 49 74
e 49 75
e 49 81
e 49 83
e 49 85
e 49 87
e 49 88
e 49 89
e 49 90
e 49 96
e 49 100
e 50 56
e 50 58
e 50 59
e 50 61
e 50 64
e 50 65
e 50 72
e 50 73
e 50 74
e 50 75
e 50 79
e 50 83
e 50 85
e 50 86
e 50 87
e 50 88
e 50 89
e 50 90
e 50 91
e 50 92
e 50 94
e 50 96
e 50 97
e 50 99
e 50 100
e 51 52
e 51 53
e 51 54
e 51 55
e 51 59
e 51 60
e 51 61
e 51 62
e 51 63
e 51 67
e 51 68
e 51 69
e 51 71
e 51 72
e 51 74
e 51 78
e 51 79
e 51 81
e 51 83
e 51 84
e 51 85
e 51 88
e 51 90
e 51 91
e 51 94
e 51 95
e 51 97
e 51 98
e 51 100
e 52 53
e 52 54
e 52 56
e 52 57
e 52 59
e 52 62
e 52 63
e 52 67
e 52 69
e 52 70
e 52 72
e 52 73
e 52 74
e 52 80
e 52 81
e 52 85
e 52 86
e 52 87
e 52 88
e 52 89
e 52 92
e 52 96
e 52 98
e 52 99
e 52 100
e 53 54
e 53 57
e 53 60
e 53 61
e 53 62
e 53 63
e 53 64
e 53 65
e 53 67
e 53 72
e 53 78
e 53 80
e 53 82
e 53 84
e 53 85
e 53 87
e 53 88
e 53 90
e 53 93
e 53 94
e 53 95
e 53 97
e 53 99
e 54 56
e 54 59
e 54 66
e 54 67
e 54 70
e 54 71
e 54 75
e 54 77
e 54 78
e 54 80
e 54 84
e 54 86
e 54 87
e 54 88
e 54 93
e 54 98
e 55 56
e 55 58
e 55 59
e 55 60
e 55 65
e 55 66
e 55 68
e 55 71
e 55 75
e 55 76
e 55 78
e 55 82
e 55 83
e 55 84
e 55 88
e 55 90
e 55 92
e 55 93
e 55 94
e 55 99
e 56 61
e 56 63
e 56 64
e 56 65
e 56 67
e 56 69
e 56 74
e 56 75
e 56 77
e 56 78
e 56 81
e 56 82
e 56 84
e 56 87
e 56 93
e 56 94
e 56 96
e 56 99
e 57 58
e 57 60
e 57 61
e 57 65
e 57 66
e 57 69
e 57 72
e 57 74
e 57 77
e 57 80
e 57 81
e 57 84
e 57 86
e 57 88
e 57 89
e 57 91
e 57 94
e 57 95
e 57 97
e 58 60
e 58 62
e 58 63
e 58 66
e 58 67
e 58 71
e 58 72
e 58 75
e 58 76
e 58 78
e 58 79
e 58 87
e 58 89
e 58 90
e 58 91
e 58 93
e 58 94
e 58 96
e 58 97
e 58 100
e 59 63
e 59 66
e 59 69
e 59 71
e 59 73
e 59 75
e 59 77
e 59 78
e 59 82
e 59 86
e 59 87
e 59 88
e 59 89
e 59 96
e 59 97
e 59 98
e 60 63
e 60 65
e 60 67
e 60 72
e 60 75
e 60 76
e 60 78
e 60 80
e 60 81
e 60 82
e 60 83
e 60 84
e 60 85
e 60 89
e 60 90
e 60 91
e 60 94
e 60 95
e 60 96
e 61 62
e 61 64
e 61 67
e 61 68
e 61 72
e 61 74
e 61 75
e 61 79
e 61 81
e 61 82
e 61 86
e 61 87
e 61 88
e 61 90
e 61 94
e 61 97
e 61 98
e 61 100
e 62 64
e 62 66
e 62 68
e 62 69
e 62 75
e 62 81
e 62 82
e 62 85
e 62 86
e 62 87
e 62 88
e 62 89
e 62 90
e 62 93
e 62 94
e 62 96
e 62 98
e 63 68
e 63 70
e 63 72
e 63 73
e 63 75
e 63 76
e 63 82
e 63 84
e 63 87
e 63 88
e 63 89
e 63 90
e 63 92
e 63 94
e 64 68
e 64 70
e 64 73
e 64 74
e 64 75
e 64 79
e 64 80
e 64 82
e 64 85
e 64 86
e 64 91
e 64 93
e 64 95
e 64 96
e 64 97
e 64 98
e 64 99
e 65 69
e 65 71
e 65 75
e 65 76
e 65 80
e 65 82
e 65 83
e 65 85
e 65 89
e 65 90
e 65 91
e 65 92
e 65 94
e 65 96
e 65 97
e 65 98
e 65 100
e 66 69
e 66 70
e 66 71
e 66 73
e 66 75
e 66 76
e 66 77
e 66 78
e 66 79
e 66 81
e 66 82
e 66 84
e 66 86
e 66 87
e 66 88
e 66 89
e 66 90
e 66 91
e 66 94
e 66 96
e 66 100
e 67 69
e 67 72
e 67 73
e 67 75
e 67 77
e 67 78
e 67 81
e 67 82
e 67 90
e 67 93
e 67 96
e 68 71
e 68 73
e 68 75
e 68 76
e 68 78
e 68 79
e 68 81
e 68 82
e 68 85
e 68 87
e 68 88
e 68 90
e 68 95
e 68 98
e 68 99
e 69 72
e 69 74
e 69 75
e 69 76
e 69 82
e 69 88
e 69 90
e 69 92
e 69 93
e 69 98
e 70 71
e 70 73
e 70 77
e 70 79
e 70 81
e 70 84
e 70 86
e 70 88
e 70 90
e 70 93
e 70 98
e 70 100
e 71 72
e 71 73
e 71 74
e 71 75
e 71 76
e 71 78
e 71 79
e 71 82
e 71 83
e 71 85
e 71 87
e 71 92
e 71 95
e 71 97
e 71 99
e 72 74
e 72 75
e 72 76
e 72 77
e 72 80
e 72 83
e 72 84
e 72 86
e 72 89
e 72 90
e 72 96
e 72 98
e 73 74
e 73 77
e 73 79
e 73 81
e 73 82
e 73 84
e 73 86
e 73 88
e 73 89
e 73 94
e 73 97
e 73 99
e 74 77
e 74 82
e 74 83
e 74 84
e 74 85
e 74 86
e 74 88
e 74 89
e 74 92
e 74 93
e 74 95
e 74 96
e 74 99
e 75 77
e 75 78
e 75 79
e 75 80
e 75 81
e 75 84
e 75 89
e 75 100
e 76 77
e 76 78
e 76 79
e 76 81
e 76 92
e 76 93
e 76 97
e 76 98
e 76 100
e 77 79
e 77 84
e 77 85
e 77 92
e 77 93
e 77 94
e 77 97
e 77 99
e 78 83
e 78 85
e 78 91
e 78 92
e 78 94
e 78 95
e 78 97
e 78 98
e 78 100
e 79 80
e 79 81
e 79 82
e 79 84
e 79 86
e 79 91
e 79 92
e 79 96
e 79 98
e 79 99
e 80 82
e 80 86
e 80 87
e 80 88
e 80 89
e 80 92
e 80 95
e 80 96
e 80 100
e 81 82
e 81 85
e 81 86
e 81 90
e 81 92
e 81 93
e 82 85
e 82 88
e 82 90
e 82 97
e 82 98
e 83 84
e 83 88
e 83 93
e 83 94
e 83 95
e 83 96
e 83 97
e 83 98
e 83 99
e 84 90
e 84 91
e 84 100
e 85 86
e 85 87
e 85 89
e 85 96
e 85 100
e 86 89
e 86 91
e 86 92
e 86 95
e 87 89
e 87 92
e 87 98
e 87 100
e 88 90
e 88 93
e 89 92
e 89 94
e 89 95
e 91 92
e 91 93
e 91 96
e 91 97
e 92 94
e 92 96
e 92 98
e 92 99
e 93 97
e 93 99
e 94 97
e 94 99
e 95 97
e 95 98
e 95 99
e 95 100
e 98 100
n 6 2
n 8 1
n 21 1
n 31 1
n 33 1
n 35 1
n 37 1
n 39 1
n 46 1
n 48 1
n 51 1
n 63 1
n 67 1
n 74 1
n 85 1
n 92 1
n 93 1
n 94 1
n 95 1
n 97 1
